data/solutions/recovery/wellformed/intermediate/binding/wellformed_intermediate_instance73/10.sol
Elapsed time: 0.08
Upper bound: 4487.0
Planning weighted value: 212882234.0
C[0]=4487.0
C[1]=4457.0
C[2]=4306.0
C[3]=4271.0
C[4]=4236.0
C[5]=4194.0
C[6]=4079.0
C[7]=3980.0
C[8]=3558.0
C[9]=3107.0
C[10]=3077.0
C[11]=2920.0
C[12]=2882.0
C[13]=2647.0
C[14]=2361.0
C[15]=0.0
y[0]=0
y[1]=12
y[2]=1
y[3]=2
y[4]=12
y[5]=6
y[6]=5
y[7]=9
y[8]=8
y[9]=14
y[10]=7
y[11]=4
y[12]=2
y[13]=1
y[14]=11
y[15]=5
y[16]=7
y[17]=7
y[18]=9
y[19]=4
y[20]=6
y[21]=12
y[22]=13
y[23]=7
y[24]=3
y[25]=0
y[26]=8
y[27]=3
y[28]=2
y[29]=10
y[30]=10
y[31]=7
y[32]=8
y[33]=0
y[34]=11
y[35]=13
y[36]=10
y[37]=0
y[38]=7
y[39]=0
y[40]=13
y[41]=8
y[42]=1
y[43]=12
y[44]=10
y[45]=0
y[46]=2
y[47]=1
y[48]=7
y[49]=10
y[50]=3
y[51]=13
y[52]=14
y[53]=1
y[54]=6
y[55]=11
y[56]=3
y[57]=2
y[58]=14
y[59]=0
y[60]=4
y[61]=8
y[62]=5
y[63]=2
y[64]=3
y[65]=0
y[66]=7
y[67]=4
y[68]=6
y[69]=5
y[70]=6
y[71]=3
y[72]=2
y[73]=7
y[74]=11
y[75]=5
y[76]=8
y[77]=6
y[78]=0
y[79]=1
y[80]=2
y[81]=13
y[82]=10
y[83]=14
y[84]=6
y[85]=14
y[86]=9
y[87]=11
y[88]=11
y[89]=13
y[90]=9
y[91]=0
y[92]=7
y[93]=4
y[94]=0
y[95]=1
y[96]=9
y[97]=5
y[98]=0
y[99]=0
y[100]=4
y[101]=8
y[102]=5
y[103]=6
y[104]=3
y[105]=1
y[106]=2
y[107]=4
