data/solutions/recovery/wellformed/intermediate/binding/wellformed_intermediate_instance73/10.log

Log started (V12.6.3.0) Fri Apr 20 17:50:00 2018

New value for default parallel thread count: 1

Problem '/tmp/tmpkEyRky.pyomo.lp' read.
Read time = 0.03 sec. (2.18 ticks)

Problem name         : /tmp/tmpkEyRky.pyomo.lp
Objective sense      : Minimize
Variables            :    1746  [Nneg: 1,  Binary: 1728,  General Integer: 17]
Objective nonzeros   :       1
Linear constraints   :     250  [Less: 124,  Equal: 126]
  Nonzeros           :  159037
  RHS nonzeros       :     109

Variables            : Min LB: 0.000000         Max UB: 1.000000       
Objective nonzeros   : Min   : 1.000000         Max   : 1.000000       
Linear constraints   :
  Nonzeros           : Min   : 1.000000         Max   : 1715.000       
  RHS nonzeros       : Min   : 1.000000         Max   : 1.000000       
Tried aggregator 2 times.
MIP Presolve eliminated 208 rows and 1550 columns.
Aggregator did 15 substitutions.
Reduced MIP has 27 rows, 181 columns, and 375 nonzeros.
Reduced MIP has 180 binaries, 1 generals, 0 SOSs, and 0 indicators.
Presolve time = 0.01 sec. (9.85 ticks)
Found incumbent of value 15917.000000 after 0.01 sec. (13.65 ticks)
Probing time = 0.00 sec. (0.23 ticks)
Tried aggregator 1 time.
Reduced MIP has 27 rows, 181 columns, and 375 nonzeros.
Reduced MIP has 180 binaries, 1 generals, 0 SOSs, and 0 indicators.
Presolve time = 0.00 sec. (0.30 ticks)
Probing time = 0.00 sec. (0.23 ticks)
Clique table members: 12.
MIP emphasis: balance optimality and feasibility.
MIP search method: dynamic search.
Parallel mode: none, using 1 thread.
Root relaxation solution time = 0.00 sec. (0.15 ticks)

        Nodes                                         Cuts/
   Node  Left     Objective  IInf  Best Integer    Best Bound    ItCnt     Gap

*     0+    0                        15917.0000     4487.0000            71.81%
      0     0     4487.0000    11    15917.0000     4487.0000       20   71.81%
*     0+    0                         4885.0000     4487.0000             8.15%
      0     0     4487.0000     3     4885.0000      Cuts: 14       28    8.15%
*     0+    0                         4487.0000     4487.0000             0.00%
      0     0        cutoff           4487.0000     4487.0000       28    0.00%
Elapsed time = 0.01 sec. (15.36 ticks, tree = 0.01 MB, solutions = 3)

Implied bound cuts applied:  2
Mixed integer rounding cuts applied:  5
Zero-half cuts applied:  3
Lift and project cuts applied:  1
Gomory fractional cuts applied:  3

Root node processing (before b&c):
  Real time             =    0.01 sec. (15.43 ticks)
Sequential b&c:
  Real time             =    0.00 sec. (0.00 ticks)
                          ------------
Total (root+branch&cut) =    0.01 sec. (15.43 ticks)

Solution pool: 3 solutions saved.

MIP - Integer optimal solution:  Objective =  4.4870000000e+03
Solution time =    0.01 sec.  Iterations = 28  Nodes = 0
Deterministic time = 15.43 ticks  (1057.47 ticks/sec)


Incumbent solution written to file '/tmp/tmpxPrHiW.cplex.sol'.

Log started (V12.6.3.0) Fri Apr 20 17:53:02 2018

New value for default parallel thread count: 1

Problem '/tmp/tmpXN9hBV.pyomo.lp' read.
Read time = 0.03 sec. (2.18 ticks)

Problem name         : /tmp/tmpXN9hBV.pyomo.lp
Objective sense      : Minimize
Variables            :    1746  [Nneg: 1,  Binary: 1728,  General Integer: 17]
Objective nonzeros   :       1
Linear constraints   :     250  [Less: 124,  Equal: 126]
  Nonzeros           :  159037
  RHS nonzeros       :     109

Variables            : Min LB: 0.000000         Max UB: 1.000000       
Objective nonzeros   : Min   : 1.000000         Max   : 1.000000       
Linear constraints   :
  Nonzeros           : Min   : 1.000000         Max   : 1715.000       
  RHS nonzeros       : Min   : 1.000000         Max   : 1.000000       
Tried aggregator 2 times.
MIP Presolve eliminated 208 rows and 1550 columns.
Aggregator did 15 substitutions.
Reduced MIP has 27 rows, 181 columns, and 375 nonzeros.
Reduced MIP has 180 binaries, 1 generals, 0 SOSs, and 0 indicators.
Presolve time = 0.01 sec. (9.85 ticks)
Found incumbent of value 15917.000000 after 0.01 sec. (13.65 ticks)
Probing time = 0.00 sec. (0.23 ticks)
Tried aggregator 1 time.
Reduced MIP has 27 rows, 181 columns, and 375 nonzeros.
Reduced MIP has 180 binaries, 1 generals, 0 SOSs, and 0 indicators.
Presolve time = 0.00 sec. (0.30 ticks)
Probing time = 0.00 sec. (0.23 ticks)
Clique table members: 12.
MIP emphasis: balance optimality and feasibility.
MIP search method: dynamic search.
Parallel mode: none, using 1 thread.
Root relaxation solution time = 0.00 sec. (0.15 ticks)

        Nodes                                         Cuts/
   Node  Left     Objective  IInf  Best Integer    Best Bound    ItCnt     Gap

*     0+    0                        15917.0000     4487.0000            71.81%
      0     0     4487.0000    11    15917.0000     4487.0000       20   71.81%
*     0+    0                         4885.0000     4487.0000             8.15%
      0     0     4487.0000     3     4885.0000      Cuts: 14       28    8.15%
*     0+    0                         4487.0000     4487.0000             0.00%
      0     0        cutoff           4487.0000     4487.0000       28    0.00%
Elapsed time = 0.02 sec. (15.36 ticks, tree = 0.01 MB, solutions = 3)

Implied bound cuts applied:  2
Mixed integer rounding cuts applied:  5
Zero-half cuts applied:  3
Lift and project cuts applied:  1
Gomory fractional cuts applied:  3

Root node processing (before b&c):
  Real time             =    0.02 sec. (15.43 ticks)
Sequential b&c:
  Real time             =    0.00 sec. (0.00 ticks)
                          ------------
Total (root+branch&cut) =    0.02 sec. (15.43 ticks)

Solution pool: 3 solutions saved.

MIP - Integer optimal solution:  Objective =  4.4870000000e+03
Solution time =    0.02 sec.  Iterations = 28  Nodes = 0
Deterministic time = 15.43 ticks  (992.32 ticks/sec)


Incumbent solution written to file '/tmp/tmpbTWDyn.cplex.sol'.
